Assets/LKHProbs~/skull.2.tsp
NAME : GeneratedProblem
COMMENT : SVGCrosshatch
TYPE : TSP
DIMENSION : 19
EDGE_WEIGHT_TYPE : EUC_2D
NODE_COORD_SECTION
1 9500 3100
2 9600 3300
3 9700 3300
4 9700 3400
5 9700 3500
6 9800 3500
7 9800 3600
8 9800 3700
9 9900 3500
10 9900 3600
11 9900 3700
12 9900 3800
13 9900 3900
14 10000 4000
15 10000 4100
16 10100 4000
17 10100 4100
18 10100 4200
19 10100 4300
EOF
