Assets/LKHProbs~/skull.2.out.txt
NAME : GeneratedProblem.2880.tour
COMMENT : Length = 2880
COMMENT : Found by LKH [Keld Helsgaun] Sun Nov 25 13:17:31 2018
TYPE : TOUR
DIMENSION : 19
TOUR_SECTION
1
2
5
7
8
12
13
14
15
19
18
17
16
11
10
9
6
4
3
-1
EOF
